fuel_planner/utils/lkh_tsp_solver/resource/single.tsp
NAME : single
TYPE : ATSP
DIMENSION : 6
EDGE_WEIGHT_TYPE : EXPLICIT
EDGE_WEIGHT_FORMAT : FULL_MATRIX
EDGE_WEIGHT_SECTION
0 545 329 842 474 520 
0 0 207 297 216 294 
0 207 0 503 172 227 
0 297 503 0 437 452 
0 216 172 437 0 349 
0 294 227 452 349 0 
EOF