fuel_planner/utils/lkh_tsp_solver/resource/single.txt
NAME : single.1418.tour
COMMENT : Length = 1418
COMMENT : Found by LKH [Keld Helsgaun] Tue Apr 23 08:10:55 2024
TYPE : TOUR
DIMENSION : 6
TOUR_SECTION
1
3
6
5
2
4
-1
EOF
